
Gurobi 12.0.0 (mac64[arm], gurobi_cl) logging started Wed Jan 15 20:02:19 2025

Set parameter LicenseID to value 2609781
Set parameter LogFile to value "gurobi.log"
Using license file /Users/florenciacarle/gurobi.lic

Gurobi 12.0.0 (mac64[arm], gurobi_cl) logging started Wed Jan 15 20:04:30 2025

Set parameter LicenseID to value 2609781
Set parameter LogFile to value "gurobi.log"
Using license file /Users/florenciacarle/gurobi.lic

Gurobi 12.0.0 (mac64[arm], gurobi_cl) logging started Wed Jan 15 20:05:07 2025

Set parameter LicenseID to value 2609781
Set parameter LogFile to value "gurobi.log"
Using license file /Users/florenciacarle/gurobi.lic
